\ LP format - for model browsing. Use MPS format to capture full model detail.
Minimize
  0.00021 C8 - 9e-05 C9 - 1600 soc[2020-09-30_13_00_00,0]
   - 1600 soc[2020-09-30_13_00_00,1] - 1600 soc[2020-09-30_13_00_00,2]
   - 1600 soc[2020-09-30_13_00_00,3] - 1600 soc[2020-09-30_13_00_00,4]
   - 1600 soc[2020-09-30_13_00_00,5] - 1600 soc[2020-09-30_13_00_00,6]
   - 1600 soc[2020-09-30_13_00_00,7] - 1600 soc[2020-09-30_13_00_00,8]
   - 1600 soc[2020-09-30_13_00_00,9] - 1600 soc[2020-09-30_13_00_00,10]
   - 1600 soc[2020-09-30_13_00_00,11] - 1600 soc[2020-09-30_13_00_00,12]
   - 1600 soc[2020-09-30_13_00_00,13] - 1600 soc[2020-09-30_13_00_00,14]
   - 1600 soc[2020-09-30_13_00_00,15] - 1600 soc[2020-09-30_13_00_00,16]
   - 1600 soc[2020-09-30_13_00_00,17] - 1600 soc[2020-09-30_13_00_00,18]
   - 1600 soc[2020-09-30_13_00_00,19] + 5.25e-06 C176 + 5.25e-06 C177
   + 5.25e-06 C178 + 5.25e-06 C179 + 5.25e-06 C180 + 5.25e-06 C181
   + 5.25e-06 C182 + 5.25e-06 C183 + 5.25e-06 C184 + 5.25e-06 C185
   + 5.25e-06 C186 + 5.25e-06 C187 + 5.25e-06 C188 + 5.25e-06 C189
   + 5.25e-06 C190 + 5.25e-06 C191 + 5.25e-06 C192 + 5.25e-06 C193
   + 5.25e-06 C194 + 5.25e-06 C195 - 2.25e-06 C196 - 2.25e-06 C197
   - 2.25e-06 C198 - 2.25e-06 C199 - 2.25e-06 C200 - 2.25e-06 C201
   - 2.25e-06 C202 - 2.25e-06 C203 - 2.25e-06 C204 - 2.25e-06 C205
   - 2.25e-06 C206 - 2.25e-06 C207 - 2.25e-06 C208 - 2.25e-06 C209
   - 2.25e-06 C210 - 2.25e-06 C211 - 2.25e-06 C212 - 2.25e-06 C213
   - 2.25e-06 C214 - 2.25e-06 C215 + 32000 Constant
Subject To
 PV_balance_1: pv_ev_1 + pv_load_1 + pv_grid_1 = 8400.818165999999
 Load_balance_1: pv_load_1 + ev_load_1 + grid_load_1 = 1439.695531
 Grid_bought_balance_1: C8 - grid_ev_1 - grid_load_1 = 0
 Grid_sold_balance_1: - pv_grid_1 - ev_grid_1 + C9 = 0
 ch_EV_balance_1: - pv_ev_1 + C4 - grid_ev_1 = 0
 dis_EV_balance_1: C5 - ev_load_1 - ev_grid_1 = 0
 R6: C4 - 3700 y_ch_1 <= 0
 R7: C5 - 3700 y_dis_1 <= 0
 SOC_update_1: soc_2 - 5.625e-05 C4 + 6.94444e-05 C5 = 0.791875
 R9: y_buy_1 + y_sell_1 <= 1
 R10: y_ch_1 + y_dis_1 <= 1
 PV_balance[2020-09-30_13_00_00,0]: pv_ev[2020-09-30_13_00_00,0]
   + pv_load[2020-09-30_13_00_00,0] + pv_grid[2020-09-30_13_00_00,0]
   = 7405.792615086497
 PV_balance[2020-09-30_13_00_00,1]: pv_ev[2020-09-30_13_00_00,1]
   + pv_load[2020-09-30_13_00_00,1] + pv_grid[2020-09-30_13_00_00,1]
   = 6103.612545793083
 PV_balance[2020-09-30_13_00_00,2]: pv_ev[2020-09-30_13_00_00,2]
   + pv_load[2020-09-30_13_00_00,2] + pv_grid[2020-09-30_13_00_00,2]
   = 6165.257238707638
 PV_balance[2020-09-30_13_00_00,3]: pv_ev[2020-09-30_13_00_00,3]
   + pv_load[2020-09-30_13_00_00,3] + pv_grid[2020-09-30_13_00_00,3]
   = 7177.978825355553
 PV_balance[2020-09-30_13_00_00,4]: pv_ev[2020-09-30_13_00_00,4]
   + pv_load[2020-09-30_13_00_00,4] + pv_grid[2020-09-30_13_00_00,4]
   = 7876.094453899575
 PV_balance[2020-09-30_13_00_00,5]: pv_ev[2020-09-30_13_00_00,5]
   + pv_load[2020-09-30_13_00_00,5] + pv_grid[2020-09-30_13_00_00,5]
   = 7216.762579574471
 PV_balance[2020-09-30_13_00_00,6]: pv_ev[2020-09-30_13_00_00,6]
   + pv_load[2020-09-30_13_00_00,6] + pv_grid[2020-09-30_13_00_00,6]
   = 4579.074325637423
 PV_balance[2020-09-30_13_00_00,7]: pv_ev[2020-09-30_13_00_00,7]
   + pv_load[2020-09-30_13_00_00,7] + pv_grid[2020-09-30_13_00_00,7]
   = 7712.264235768667
 PV_balance[2020-09-30_13_00_00,8]: pv_ev[2020-09-30_13_00_00,8]
   + pv_load[2020-09-30_13_00_00,8] + pv_grid[2020-09-30_13_00_00,8]
   = 7216.812505716148
 PV_balance[2020-09-30_13_00_00,9]: pv_ev[2020-09-30_13_00_00,9]
   + pv_load[2020-09-30_13_00_00,9] + pv_grid[2020-09-30_13_00_00,9]
   = 5980.524475051378
 PV_balance[2020-09-30_13_00_00,10]: pv_ev[2020-09-30_13_00_00,10]
   + pv_load[2020-09-30_13_00_00,10] + pv_grid[2020-09-30_13_00_00,10]
   = 2429.681050395618
 PV_balance[2020-09-30_13_00_00,11]: pv_ev[2020-09-30_13_00_00,11]
   + pv_load[2020-09-30_13_00_00,11] + pv_grid[2020-09-30_13_00_00,11]
   = 3717.421996359932
 PV_balance[2020-09-30_13_00_00,12]: pv_ev[2020-09-30_13_00_00,12]
   + pv_load[2020-09-30_13_00_00,12] + pv_grid[2020-09-30_13_00_00,12]
   = 10111.35626389331
 PV_balance[2020-09-30_13_00_00,13]: pv_ev[2020-09-30_13_00_00,13]
   + pv_load[2020-09-30_13_00_00,13] + pv_grid[2020-09-30_13_00_00,13]
   = 10708.23939284476
 PV_balance[2020-09-30_13_00_00,14]: pv_ev[2020-09-30_13_00_00,14]
   + pv_load[2020-09-30_13_00_00,14] + pv_grid[2020-09-30_13_00_00,14]
   = 5698.375340599411
 PV_balance[2020-09-30_13_00_00,15]: pv_ev[2020-09-30_13_00_00,15]
   + pv_load[2020-09-30_13_00_00,15] + pv_grid[2020-09-30_13_00_00,15]
   = 6354.025161975861
 PV_balance[2020-09-30_13_00_00,16]: pv_ev[2020-09-30_13_00_00,16]
   + pv_load[2020-09-30_13_00_00,16] + pv_grid[2020-09-30_13_00_00,16]
   = 5104.029184379451
 PV_balance[2020-09-30_13_00_00,17]: pv_ev[2020-09-30_13_00_00,17]
   + pv_load[2020-09-30_13_00_00,17] + pv_grid[2020-09-30_13_00_00,17]
   = 8060.181801385611
 PV_balance[2020-09-30_13_00_00,18]: pv_ev[2020-09-30_13_00_00,18]
   + pv_load[2020-09-30_13_00_00,18] + pv_grid[2020-09-30_13_00_00,18]
   = 9125.556543884186
 PV_balance[2020-09-30_13_00_00,19]: pv_ev[2020-09-30_13_00_00,19]
   + pv_load[2020-09-30_13_00_00,19] + pv_grid[2020-09-30_13_00_00,19]
   = 6791.747777563871
 Load_balance[2020-09-30_13_00_00,0]: pv_load[2020-09-30_13_00_00,0]
   + ev_load[2020-09-30_13_00_00,0] + grid_load[2020-09-30_13_00_00,0]
   = 5691.7958984375
 Load_balance[2020-09-30_13_00_00,1]: pv_load[2020-09-30_13_00_00,1]
   + ev_load[2020-09-30_13_00_00,1] + grid_load[2020-09-30_13_00_00,1]
   = 5691.7958984375
 Load_balance[2020-09-30_13_00_00,2]: pv_load[2020-09-30_13_00_00,2]
   + ev_load[2020-09-30_13_00_00,2] + grid_load[2020-09-30_13_00_00,2]
   = 5691.7958984375
 Load_balance[2020-09-30_13_00_00,3]: pv_load[2020-09-30_13_00_00,3]
   + ev_load[2020-09-30_13_00_00,3] + grid_load[2020-09-30_13_00_00,3]
   = 5691.7958984375
 Load_balance[2020-09-30_13_00_00,4]: pv_load[2020-09-30_13_00_00,4]
   + ev_load[2020-09-30_13_00_00,4] + grid_load[2020-09-30_13_00_00,4]
   = 5691.7958984375
 Load_balance[2020-09-30_13_00_00,5]: pv_load[2020-09-30_13_00_00,5]
   + ev_load[2020-09-30_13_00_00,5] + grid_load[2020-09-30_13_00_00,5]
   = 5691.7958984375
 Load_balance[2020-09-30_13_00_00,6]: pv_load[2020-09-30_13_00_00,6]
   + ev_load[2020-09-30_13_00_00,6] + grid_load[2020-09-30_13_00_00,6]
   = 5691.7958984375
 Load_balance[2020-09-30_13_00_00,7]: pv_load[2020-09-30_13_00_00,7]
   + ev_load[2020-09-30_13_00_00,7] + grid_load[2020-09-30_13_00_00,7]
   = 5691.7958984375
 Load_balance[2020-09-30_13_00_00,8]: pv_load[2020-09-30_13_00_00,8]
   + ev_load[2020-09-30_13_00_00,8] + grid_load[2020-09-30_13_00_00,8]
   = 5691.7958984375
 Load_balance[2020-09-30_13_00_00,9]: pv_load[2020-09-30_13_00_00,9]
   + ev_load[2020-09-30_13_00_00,9] + grid_load[2020-09-30_13_00_00,9]
   = 5691.7958984375
 Load_balance[2020-09-30_13_00_00,10]: pv_load[2020-09-30_13_00_00,10]
   + ev_load[2020-09-30_13_00_00,10] + grid_load[2020-09-30_13_00_00,10]
   = 5691.7958984375
 Load_balance[2020-09-30_13_00_00,11]: pv_load[2020-09-30_13_00_00,11]
   + ev_load[2020-09-30_13_00_00,11] + grid_load[2020-09-30_13_00_00,11]
   = 5691.7958984375
 Load_balance[2020-09-30_13_00_00,12]: pv_load[2020-09-30_13_00_00,12]
   + ev_load[2020-09-30_13_00_00,12] + grid_load[2020-09-30_13_00_00,12]
   = 5691.7958984375
 Load_balance[2020-09-30_13_00_00,13]: pv_load[2020-09-30_13_00_00,13]
   + ev_load[2020-09-30_13_00_00,13] + grid_load[2020-09-30_13_00_00,13]
   = 5691.7958984375
 Load_balance[2020-09-30_13_00_00,14]: pv_load[2020-09-30_13_00_00,14]
   + ev_load[2020-09-30_13_00_00,14] + grid_load[2020-09-30_13_00_00,14]
   = 5691.7958984375
 Load_balance[2020-09-30_13_00_00,15]: pv_load[2020-09-30_13_00_00,15]
   + ev_load[2020-09-30_13_00_00,15] + grid_load[2020-09-30_13_00_00,15]
   = 5691.7958984375
 Load_balance[2020-09-30_13_00_00,16]: pv_load[2020-09-30_13_00_00,16]
   + ev_load[2020-09-30_13_00_00,16] + grid_load[2020-09-30_13_00_00,16]
   = 5691.7958984375
 Load_balance[2020-09-30_13_00_00,17]: pv_load[2020-09-30_13_00_00,17]
   + ev_load[2020-09-30_13_00_00,17] + grid_load[2020-09-30_13_00_00,17]
   = 5691.7958984375
 Load_balance[2020-09-30_13_00_00,18]: pv_load[2020-09-30_13_00_00,18]
   + ev_load[2020-09-30_13_00_00,18] + grid_load[2020-09-30_13_00_00,18]
   = 5691.7958984375
 Load_balance[2020-09-30_13_00_00,19]: pv_load[2020-09-30_13_00_00,19]
   + ev_load[2020-09-30_13_00_00,19] + grid_load[2020-09-30_13_00_00,19]
   = 5691.7958984375
 Grid_bought_balance[2020-09-30_13_00_00,0]: C176
   - grid_ev[2020-09-30_13_00_00,0] - grid_load[2020-09-30_13_00_00,0] = 0
 Grid_bought_balance[2020-09-30_13_00_00,1]: C177
   - grid_ev[2020-09-30_13_00_00,1] - grid_load[2020-09-30_13_00_00,1] = 0
 Grid_bought_balance[2020-09-30_13_00_00,2]: C178
   - grid_ev[2020-09-30_13_00_00,2] - grid_load[2020-09-30_13_00_00,2] = 0
 Grid_bought_balance[2020-09-30_13_00_00,3]: C179
   - grid_ev[2020-09-30_13_00_00,3] - grid_load[2020-09-30_13_00_00,3] = 0
 Grid_bought_balance[2020-09-30_13_00_00,4]: C180
   - grid_ev[2020-09-30_13_00_00,4] - grid_load[2020-09-30_13_00_00,4] = 0
 Grid_bought_balance[2020-09-30_13_00_00,5]: C181
   - grid_ev[2020-09-30_13_00_00,5] - grid_load[2020-09-30_13_00_00,5] = 0
 Grid_bought_balance[2020-09-30_13_00_00,6]: C182
   - grid_ev[2020-09-30_13_00_00,6] - grid_load[2020-09-30_13_00_00,6] = 0
 Grid_bought_balance[2020-09-30_13_00_00,7]: C183
   - grid_ev[2020-09-30_13_00_00,7] - grid_load[2020-09-30_13_00_00,7] = 0
 Grid_bought_balance[2020-09-30_13_00_00,8]: C184
   - grid_ev[2020-09-30_13_00_00,8] - grid_load[2020-09-30_13_00_00,8] = 0
 Grid_bought_balance[2020-09-30_13_00_00,9]: C185
   - grid_ev[2020-09-30_13_00_00,9] - grid_load[2020-09-30_13_00_00,9] = 0
 Grid_bought_balance[2020-09-30_13_00_00,10]: C186
   - grid_ev[2020-09-30_13_00_00,10] - grid_load[2020-09-30_13_00_00,10]
   = 0
 Grid_bought_balance[2020-09-30_13_00_00,11]: C187
   - grid_ev[2020-09-30_13_00_00,11] - grid_load[2020-09-30_13_00_00,11]
   = 0
 Grid_bought_balance[2020-09-30_13_00_00,12]: C188
   - grid_ev[2020-09-30_13_00_00,12] - grid_load[2020-09-30_13_00_00,12]
   = 0
 Grid_bought_balance[2020-09-30_13_00_00,13]: C189
   - grid_ev[2020-09-30_13_00_00,13] - grid_load[2020-09-30_13_00_00,13]
   = 0
 Grid_bought_balance[2020-09-30_13_00_00,14]: C190
   - grid_ev[2020-09-30_13_00_00,14] - grid_load[2020-09-30_13_00_00,14]
   = 0
 Grid_bought_balance[2020-09-30_13_00_00,15]: C191
   - grid_ev[2020-09-30_13_00_00,15] - grid_load[2020-09-30_13_00_00,15]
   = 0
 Grid_bought_balance[2020-09-30_13_00_00,16]: C192
   - grid_ev[2020-09-30_13_00_00,16] - grid_load[2020-09-30_13_00_00,16]
   = 0
 Grid_bought_balance[2020-09-30_13_00_00,17]: C193
   - grid_ev[2020-09-30_13_00_00,17] - grid_load[2020-09-30_13_00_00,17]
   = 0
 Grid_bought_balance[2020-09-30_13_00_00,18]: C194
   - grid_ev[2020-09-30_13_00_00,18] - grid_load[2020-09-30_13_00_00,18]
   = 0
 Grid_bought_balance[2020-09-30_13_00_00,19]: C195
   - grid_ev[2020-09-30_13_00_00,19] - grid_load[2020-09-30_13_00_00,19]
   = 0
 Grid_sold_balance[2020-09-30_13_00_00,0]: - pv_grid[2020-09-30_13_00_00,0]
   - ev_grid[2020-09-30_13_00_00,0] + C196 = 0
 Grid_sold_balance[2020-09-30_13_00_00,1]: - pv_grid[2020-09-30_13_00_00,1]
   - ev_grid[2020-09-30_13_00_00,1] + C197 = 0
 Grid_sold_balance[2020-09-30_13_00_00,2]: - pv_grid[2020-09-30_13_00_00,2]
   - ev_grid[2020-09-30_13_00_00,2] + C198 = 0
 Grid_sold_balance[2020-09-30_13_00_00,3]: - pv_grid[2020-09-30_13_00_00,3]
   - ev_grid[2020-09-30_13_00_00,3] + C199 = 0
 Grid_sold_balance[2020-09-30_13_00_00,4]: - pv_grid[2020-09-30_13_00_00,4]
   - ev_grid[2020-09-30_13_00_00,4] + C200 = 0
 Grid_sold_balance[2020-09-30_13_00_00,5]: - pv_grid[2020-09-30_13_00_00,5]
   - ev_grid[2020-09-30_13_00_00,5] + C201 = 0
 Grid_sold_balance[2020-09-30_13_00_00,6]: - pv_grid[2020-09-30_13_00_00,6]
   - ev_grid[2020-09-30_13_00_00,6] + C202 = 0
 Grid_sold_balance[2020-09-30_13_00_00,7]: - pv_grid[2020-09-30_13_00_00,7]
   - ev_grid[2020-09-30_13_00_00,7] + C203 = 0
 Grid_sold_balance[2020-09-30_13_00_00,8]: - pv_grid[2020-09-30_13_00_00,8]
   - ev_grid[2020-09-30_13_00_00,8] + C204 = 0
 Grid_sold_balance[2020-09-30_13_00_00,9]: - pv_grid[2020-09-30_13_00_00,9]
   - ev_grid[2020-09-30_13_00_00,9] + C205 = 0
 Grid_sold_balance[2020-09-30_13_00_00,10]:
   - pv_grid[2020-09-30_13_00_00,10] - ev_grid[2020-09-30_13_00_00,10]
   + C206 = 0
 Grid_sold_balance[2020-09-30_13_00_00,11]:
   - pv_grid[2020-09-30_13_00_00,11] - ev_grid[2020-09-30_13_00_00,11]
   + C207 = 0
 Grid_sold_balance[2020-09-30_13_00_00,12]:
   - pv_grid[2020-09-30_13_00_00,12] - ev_grid[2020-09-30_13_00_00,12]
   + C208 = 0
 Grid_sold_balance[2020-09-30_13_00_00,13]:
   - pv_grid[2020-09-30_13_00_00,13] - ev_grid[2020-09-30_13_00_00,13]
   + C209 = 0
 Grid_sold_balance[2020-09-30_13_00_00,14]:
   - pv_grid[2020-09-30_13_00_00,14] - ev_grid[2020-09-30_13_00_00,14]
   + C210 = 0
 Grid_sold_balance[2020-09-30_13_00_00,15]:
   - pv_grid[2020-09-30_13_00_00,15] - ev_grid[2020-09-30_13_00_00,15]
   + C211 = 0
 Grid_sold_balance[2020-09-30_13_00_00,16]:
   - pv_grid[2020-09-30_13_00_00,16] - ev_grid[2020-09-30_13_00_00,16]
   + C212 = 0
 Grid_sold_balance[2020-09-30_13_00_00,17]:
   - pv_grid[2020-09-30_13_00_00,17] - ev_grid[2020-09-30_13_00_00,17]
   + C213 = 0
 Grid_sold_balance[2020-09-30_13_00_00,18]:
   - pv_grid[2020-09-30_13_00_00,18] - ev_grid[2020-09-30_13_00_00,18]
   + C214 = 0
 Grid_sold_balance[2020-09-30_13_00_00,19]:
   - pv_grid[2020-09-30_13_00_00,19] - ev_grid[2020-09-30_13_00_00,19]
   + C215 = 0
 ch_EV_balance[2020-09-30_13_00_00,0]: - pv_ev[2020-09-30_13_00_00,0] + C96
   - grid_ev[2020-09-30_13_00_00,0] = 0
 ch_EV_balance[2020-09-30_13_00_00,1]: - pv_ev[2020-09-30_13_00_00,1] + C97
   - grid_ev[2020-09-30_13_00_00,1] = 0
 ch_EV_balance[2020-09-30_13_00_00,2]: - pv_ev[2020-09-30_13_00_00,2] + C98
   - grid_ev[2020-09-30_13_00_00,2] = 0
 ch_EV_balance[2020-09-30_13_00_00,3]: - pv_ev[2020-09-30_13_00_00,3] + C99
   - grid_ev[2020-09-30_13_00_00,3] = 0
 ch_EV_balance[2020-09-30_13_00_00,4]: - pv_ev[2020-09-30_13_00_00,4]
   + C100 - grid_ev[2020-09-30_13_00_00,4] = 0
 ch_EV_balance[2020-09-30_13_00_00,5]: - pv_ev[2020-09-30_13_00_00,5]
   + C101 - grid_ev[2020-09-30_13_00_00,5] = 0
 ch_EV_balance[2020-09-30_13_00_00,6]: - pv_ev[2020-09-30_13_00_00,6]
   + C102 - grid_ev[2020-09-30_13_00_00,6] = 0
 ch_EV_balance[2020-09-30_13_00_00,7]: - pv_ev[2020-09-30_13_00_00,7]
   + C103 - grid_ev[2020-09-30_13_00_00,7] = 0
 ch_EV_balance[2020-09-30_13_00_00,8]: - pv_ev[2020-09-30_13_00_00,8]
   + C104 - grid_ev[2020-09-30_13_00_00,8] = 0
 ch_EV_balance[2020-09-30_13_00_00,9]: - pv_ev[2020-09-30_13_00_00,9]
   + C105 - grid_ev[2020-09-30_13_00_00,9] = 0
 ch_EV_balance[2020-09-30_13_00_00,10]: - pv_ev[2020-09-30_13_00_00,10]
   + C106 - grid_ev[2020-09-30_13_00_00,10] = 0
 ch_EV_balance[2020-09-30_13_00_00,11]: - pv_ev[2020-09-30_13_00_00,11]
   + C107 - grid_ev[2020-09-30_13_00_00,11] = 0
 ch_EV_balance[2020-09-30_13_00_00,12]: - pv_ev[2020-09-30_13_00_00,12]
   + C108 - grid_ev[2020-09-30_13_00_00,12] = 0
 ch_EV_balance[2020-09-30_13_00_00,13]: - pv_ev[2020-09-30_13_00_00,13]
   + C109 - grid_ev[2020-09-30_13_00_00,13] = 0
 ch_EV_balance[2020-09-30_13_00_00,14]: - pv_ev[2020-09-30_13_00_00,14]
   + C110 - grid_ev[2020-09-30_13_00_00,14] = 0
 ch_EV_balance[2020-09-30_13_00_00,15]: - pv_ev[2020-09-30_13_00_00,15]
   + C111 - grid_ev[2020-09-30_13_00_00,15] = 0
 ch_EV_balance[2020-09-30_13_00_00,16]: - pv_ev[2020-09-30_13_00_00,16]
   + C112 - grid_ev[2020-09-30_13_00_00,16] = 0
 ch_EV_balance[2020-09-30_13_00_00,17]: - pv_ev[2020-09-30_13_00_00,17]
   + C113 - grid_ev[2020-09-30_13_00_00,17] = 0
 ch_EV_balance[2020-09-30_13_00_00,18]: - pv_ev[2020-09-30_13_00_00,18]
   + C114 - grid_ev[2020-09-30_13_00_00,18] = 0
 ch_EV_balance[2020-09-30_13_00_00,19]: - pv_ev[2020-09-30_13_00_00,19]
   + C115 - grid_ev[2020-09-30_13_00_00,19] = 0
 dis_EV_balance[2020-09-30_13_00_00,0]: C116
   - ev_load[2020-09-30_13_00_00,0] - ev_grid[2020-09-30_13_00_00,0] = 0
 dis_EV_balance[2020-09-30_13_00_00,1]: C117
   - ev_load[2020-09-30_13_00_00,1] - ev_grid[2020-09-30_13_00_00,1] = 0
 dis_EV_balance[2020-09-30_13_00_00,2]: C118
   - ev_load[2020-09-30_13_00_00,2] - ev_grid[2020-09-30_13_00_00,2] = 0
 dis_EV_balance[2020-09-30_13_00_00,3]: C119
   - ev_load[2020-09-30_13_00_00,3] - ev_grid[2020-09-30_13_00_00,3] = 0
 dis_EV_balance[2020-09-30_13_00_00,4]: C120
   - ev_load[2020-09-30_13_00_00,4] - ev_grid[2020-09-30_13_00_00,4] = 0
 dis_EV_balance[2020-09-30_13_00_00,5]: C121
   - ev_load[2020-09-30_13_00_00,5] - ev_grid[2020-09-30_13_00_00,5] = 0
 dis_EV_balance[2020-09-30_13_00_00,6]: C122
   - ev_load[2020-09-30_13_00_00,6] - ev_grid[2020-09-30_13_00_00,6] = 0
 dis_EV_balance[2020-09-30_13_00_00,7]: C123
   - ev_load[2020-09-30_13_00_00,7] - ev_grid[2020-09-30_13_00_00,7] = 0
 dis_EV_balance[2020-09-30_13_00_00,8]: C124
   - ev_load[2020-09-30_13_00_00,8] - ev_grid[2020-09-30_13_00_00,8] = 0
 dis_EV_balance[2020-09-30_13_00_00,9]: C125
   - ev_load[2020-09-30_13_00_00,9] - ev_grid[2020-09-30_13_00_00,9] = 0
 dis_EV_balance[2020-09-30_13_00_00,10]: C126
   - ev_load[2020-09-30_13_00_00,10] - ev_grid[2020-09-30_13_00_00,10] = 0
 dis_EV_balance[2020-09-30_13_00_00,11]: C127
   - ev_load[2020-09-30_13_00_00,11] - ev_grid[2020-09-30_13_00_00,11] = 0
 dis_EV_balance[2020-09-30_13_00_00,12]: C128
   - ev_load[2020-09-30_13_00_00,12] - ev_grid[2020-09-30_13_00_00,12] = 0
 dis_EV_balance[2020-09-30_13_00_00,13]: C129
   - ev_load[2020-09-30_13_00_00,13] - ev_grid[2020-09-30_13_00_00,13] = 0
 dis_EV_balance[2020-09-30_13_00_00,14]: C130
   - ev_load[2020-09-30_13_00_00,14] - ev_grid[2020-09-30_13_00_00,14] = 0
 dis_EV_balance[2020-09-30_13_00_00,15]: C131
   - ev_load[2020-09-30_13_00_00,15] - ev_grid[2020-09-30_13_00_00,15] = 0
 dis_EV_balance[2020-09-30_13_00_00,16]: C132
   - ev_load[2020-09-30_13_00_00,16] - ev_grid[2020-09-30_13_00_00,16] = 0
 dis_EV_balance[2020-09-30_13_00_00,17]: C133
   - ev_load[2020-09-30_13_00_00,17] - ev_grid[2020-09-30_13_00_00,17] = 0
 dis_EV_balance[2020-09-30_13_00_00,18]: C134
   - ev_load[2020-09-30_13_00_00,18] - ev_grid[2020-09-30_13_00_00,18] = 0
 dis_EV_balance[2020-09-30_13_00_00,19]: C135
   - ev_load[2020-09-30_13_00_00,19] - ev_grid[2020-09-30_13_00_00,19] = 0
 R131: C96 <= 0
 R132: C97 <= 0
 R133: C98 <= 0
 R134: C99 <= 0
 R135: C100 <= 0
 R136: C101 <= 0
 R137: C102 <= 0
 R138: C103 <= 0
 R139: C104 <= 0
 R140: C105 <= 0
 R141: C106 <= 0
 R142: C107 <= 0
 R143: C108 <= 0
 R144: C109 <= 0
 R145: C110 <= 0
 R146: C111 <= 0
 R147: C112 <= 0
 R148: C113 <= 0
 R149: C114 <= 0
 R150: C115 <= 0
 R151: C116 <= 0
 R152: C117 <= 0
 R153: C118 <= 0
 R154: C119 <= 0
 R155: C120 <= 0
 R156: C121 <= 0
 R157: C122 <= 0
 R158: C123 <= 0
 R159: C124 <= 0
 R160: C125 <= 0
 R161: C126 <= 0
 R162: C127 <= 0
 R163: C128 <= 0
 R164: C129 <= 0
 R165: C130 <= 0
 R166: C131 <= 0
 R167: C132 <= 0
 R168: C133 <= 0
 R169: C134 <= 0
 R170: C135 <= 0
 SOC_continuity[0]: - soc_2 + soc[2020-09-30_13_00_00,0] = 0
 SOC_continuity[1]: - soc_2 + soc[2020-09-30_13_00_00,1] = 0
 SOC_continuity[2]: - soc_2 + soc[2020-09-30_13_00_00,2] = 0
 SOC_continuity[3]: - soc_2 + soc[2020-09-30_13_00_00,3] = 0
 SOC_continuity[4]: - soc_2 + soc[2020-09-30_13_00_00,4] = 0
 SOC_continuity[5]: - soc_2 + soc[2020-09-30_13_00_00,5] = 0
 SOC_continuity[6]: - soc_2 + soc[2020-09-30_13_00_00,6] = 0
 SOC_continuity[7]: - soc_2 + soc[2020-09-30_13_00_00,7] = 0
 SOC_continuity[8]: - soc_2 + soc[2020-09-30_13_00_00,8] = 0
 SOC_continuity[9]: - soc_2 + soc[2020-09-30_13_00_00,9] = 0
 SOC_continuity[10]: - soc_2 + soc[2020-09-30_13_00_00,10] = 0
 SOC_continuity[11]: - soc_2 + soc[2020-09-30_13_00_00,11] = 0
 SOC_continuity[12]: - soc_2 + soc[2020-09-30_13_00_00,12] = 0
 SOC_continuity[13]: - soc_2 + soc[2020-09-30_13_00_00,13] = 0
 SOC_continuity[14]: - soc_2 + soc[2020-09-30_13_00_00,14] = 0
 SOC_continuity[15]: - soc_2 + soc[2020-09-30_13_00_00,15] = 0
 SOC_continuity[16]: - soc_2 + soc[2020-09-30_13_00_00,16] = 0
 SOC_continuity[17]: - soc_2 + soc[2020-09-30_13_00_00,17] = 0
 SOC_continuity[18]: - soc_2 + soc[2020-09-30_13_00_00,18] = 0
 SOC_continuity[19]: - soc_2 + soc[2020-09-30_13_00_00,19] = 0
 R191: y_buy[2020-09-30_13_00_00,0] + y_sell[2020-09-30_13_00_00,0] <= 1
 R192: y_buy[2020-09-30_13_00_00,1] + y_sell[2020-09-30_13_00_00,1] <= 1
 R193: y_buy[2020-09-30_13_00_00,2] + y_sell[2020-09-30_13_00_00,2] <= 1
 R194: y_buy[2020-09-30_13_00_00,3] + y_sell[2020-09-30_13_00_00,3] <= 1
 R195: y_buy[2020-09-30_13_00_00,4] + y_sell[2020-09-30_13_00_00,4] <= 1
 R196: y_buy[2020-09-30_13_00_00,5] + y_sell[2020-09-30_13_00_00,5] <= 1
 R197: y_buy[2020-09-30_13_00_00,6] + y_sell[2020-09-30_13_00_00,6] <= 1
 R198: y_buy[2020-09-30_13_00_00,7] + y_sell[2020-09-30_13_00_00,7] <= 1
 R199: y_buy[2020-09-30_13_00_00,8] + y_sell[2020-09-30_13_00_00,8] <= 1
 R200: y_buy[2020-09-30_13_00_00,9] + y_sell[2020-09-30_13_00_00,9] <= 1
 R201: y_buy[2020-09-30_13_00_00,10] + y_sell[2020-09-30_13_00_00,10] <= 1
 R202: y_buy[2020-09-30_13_00_00,11] + y_sell[2020-09-30_13_00_00,11] <= 1
 R203: y_buy[2020-09-30_13_00_00,12] + y_sell[2020-09-30_13_00_00,12] <= 1
 R204: y_buy[2020-09-30_13_00_00,13] + y_sell[2020-09-30_13_00_00,13] <= 1
 R205: y_buy[2020-09-30_13_00_00,14] + y_sell[2020-09-30_13_00_00,14] <= 1
 R206: y_buy[2020-09-30_13_00_00,15] + y_sell[2020-09-30_13_00_00,15] <= 1
 R207: y_buy[2020-09-30_13_00_00,16] + y_sell[2020-09-30_13_00_00,16] <= 1
 R208: y_buy[2020-09-30_13_00_00,17] + y_sell[2020-09-30_13_00_00,17] <= 1
 R209: y_buy[2020-09-30_13_00_00,18] + y_sell[2020-09-30_13_00_00,18] <= 1
 R210: y_buy[2020-09-30_13_00_00,19] + y_sell[2020-09-30_13_00_00,19] <= 1
 R211: y_ch[2020-09-30_13_00_00,0] + y_dis[2020-09-30_13_00_00,0] <= 1
 R212: y_ch[2020-09-30_13_00_00,1] + y_dis[2020-09-30_13_00_00,1] <= 1
 R213: y_ch[2020-09-30_13_00_00,2] + y_dis[2020-09-30_13_00_00,2] <= 1
 R214: y_ch[2020-09-30_13_00_00,3] + y_dis[2020-09-30_13_00_00,3] <= 1
 R215: y_ch[2020-09-30_13_00_00,4] + y_dis[2020-09-30_13_00_00,4] <= 1
 R216: y_ch[2020-09-30_13_00_00,5] + y_dis[2020-09-30_13_00_00,5] <= 1
 R217: y_ch[2020-09-30_13_00_00,6] + y_dis[2020-09-30_13_00_00,6] <= 1
 R218: y_ch[2020-09-30_13_00_00,7] + y_dis[2020-09-30_13_00_00,7] <= 1
 R219: y_ch[2020-09-30_13_00_00,8] + y_dis[2020-09-30_13_00_00,8] <= 1
 R220: y_ch[2020-09-30_13_00_00,9] + y_dis[2020-09-30_13_00_00,9] <= 1
 R221: y_ch[2020-09-30_13_00_00,10] + y_dis[2020-09-30_13_00_00,10] <= 1
 R222: y_ch[2020-09-30_13_00_00,11] + y_dis[2020-09-30_13_00_00,11] <= 1
 R223: y_ch[2020-09-30_13_00_00,12] + y_dis[2020-09-30_13_00_00,12] <= 1
 R224: y_ch[2020-09-30_13_00_00,13] + y_dis[2020-09-30_13_00_00,13] <= 1
 R225: y_ch[2020-09-30_13_00_00,14] + y_dis[2020-09-30_13_00_00,14] <= 1
 R226: y_ch[2020-09-30_13_00_00,15] + y_dis[2020-09-30_13_00_00,15] <= 1
 R227: y_ch[2020-09-30_13_00_00,16] + y_dis[2020-09-30_13_00_00,16] <= 1
 R228: y_ch[2020-09-30_13_00_00,17] + y_dis[2020-09-30_13_00_00,17] <= 1
 R229: y_ch[2020-09-30_13_00_00,18] + y_dis[2020-09-30_13_00_00,18] <= 1
 R230: y_ch[2020-09-30_13_00_00,19] + y_dis[2020-09-30_13_00_00,19] <= 1
 Grid_balance_1: [ - C4 * y_ch_1 + C5 * y_dis_1 + C8 * y_buy_1
   - C9 * y_sell_1 ] = -6961.122634999999
 qc1: ev_grid_1 + grid_ev_1 + [ - ev_grid_1 * y_sell_1
   - y_buy_1 * grid_ev_1 ] = 0
 Grid_balance[2020-09-30_13_00_00,0]: [ - C96 * y_ch[2020-09-30_13_00_00,0]
   + C116 * y_dis[2020-09-30_13_00_00,0]
   + C176 * y_buy[2020-09-30_13_00_00,0]
   - C196 * y_sell[2020-09-30_13_00_00,0] ] = -1713.996716648997
 Grid_balance[2020-09-30_13_00_00,1]: [ - C97 * y_ch[2020-09-30_13_00_00,1]
   + C117 * y_dis[2020-09-30_13_00_00,1]
   + C177 * y_buy[2020-09-30_13_00_00,1]
   - C197 * y_sell[2020-09-30_13_00_00,1] ] = -411.816647355583
 Grid_balance[2020-09-30_13_00_00,2]: [ - C98 * y_ch[2020-09-30_13_00_00,2]
   + C118 * y_dis[2020-09-30_13_00_00,2]
   + C178 * y_buy[2020-09-30_13_00_00,2]
   - C198 * y_sell[2020-09-30_13_00_00,2] ] = -473.461340270138
 Grid_balance[2020-09-30_13_00_00,3]: [ - C99 * y_ch[2020-09-30_13_00_00,3]
   + C119 * y_dis[2020-09-30_13_00_00,3]
   + C179 * y_buy[2020-09-30_13_00_00,3]
   - C199 * y_sell[2020-09-30_13_00_00,3] ] = -1486.182926918053
 Grid_balance[2020-09-30_13_00_00,4]: [
   - C100 * y_ch[2020-09-30_13_00_00,4]
   + C120 * y_dis[2020-09-30_13_00_00,4]
   + C180 * y_buy[2020-09-30_13_00_00,4]
   - C200 * y_sell[2020-09-30_13_00_00,4] ] = -2184.298555462075
 Grid_balance[2020-09-30_13_00_00,5]: [
   - C101 * y_ch[2020-09-30_13_00_00,5]
   + C121 * y_dis[2020-09-30_13_00_00,5]
   + C181 * y_buy[2020-09-30_13_00_00,5]
   - C201 * y_sell[2020-09-30_13_00_00,5] ] = -1524.966681136971
 Grid_balance[2020-09-30_13_00_00,6]: [
   - C102 * y_ch[2020-09-30_13_00_00,6]
   + C122 * y_dis[2020-09-30_13_00_00,6]
   + C182 * y_buy[2020-09-30_13_00_00,6]
   - C202 * y_sell[2020-09-30_13_00_00,6] ] = 1112.721572800077
 Grid_balance[2020-09-30_13_00_00,7]: [
   - C103 * y_ch[2020-09-30_13_00_00,7]
   + C123 * y_dis[2020-09-30_13_00_00,7]
   + C183 * y_buy[2020-09-30_13_00_00,7]
   - C203 * y_sell[2020-09-30_13_00_00,7] ] = -2020.468337331167
 Grid_balance[2020-09-30_13_00_00,8]: [
   - C104 * y_ch[2020-09-30_13_00_00,8]
   + C124 * y_dis[2020-09-30_13_00_00,8]
   + C184 * y_buy[2020-09-30_13_00_00,8]
   - C204 * y_sell[2020-09-30_13_00_00,8] ] = -1525.016607278648
 Grid_balance[2020-09-30_13_00_00,9]: [
   - C105 * y_ch[2020-09-30_13_00_00,9]
   + C125 * y_dis[2020-09-30_13_00_00,9]
   + C185 * y_buy[2020-09-30_13_00_00,9]
   - C205 * y_sell[2020-09-30_13_00_00,9] ] = -288.7285766138775
 Grid_balance[2020-09-30_13_00_00,10]: [
   - C106 * y_ch[2020-09-30_13_00_00,10]
   + C126 * y_dis[2020-09-30_13_00_00,10]
   + C186 * y_buy[2020-09-30_13_00_00,10]
   - C206 * y_sell[2020-09-30_13_00_00,10] ] = 3262.114848041882
 Grid_balance[2020-09-30_13_00_00,11]: [
   - C107 * y_ch[2020-09-30_13_00_00,11]
   + C127 * y_dis[2020-09-30_13_00_00,11]
   + C187 * y_buy[2020-09-30_13_00_00,11]
   - C207 * y_sell[2020-09-30_13_00_00,11] ] = 1974.373902077568
 Grid_balance[2020-09-30_13_00_00,12]: [
   - C108 * y_ch[2020-09-30_13_00_00,12]
   + C128 * y_dis[2020-09-30_13_00_00,12]
   + C188 * y_buy[2020-09-30_13_00_00,12]
   - C208 * y_sell[2020-09-30_13_00_00,12] ] = -4419.560365455811
 Grid_balance[2020-09-30_13_00_00,13]: [
   - C109 * y_ch[2020-09-30_13_00_00,13]
   + C129 * y_dis[2020-09-30_13_00_00,13]
   + C189 * y_buy[2020-09-30_13_00_00,13]
   - C209 * y_sell[2020-09-30_13_00_00,13] ] = -5016.44349440726
 Grid_balance[2020-09-30_13_00_00,14]: [
   - C110 * y_ch[2020-09-30_13_00_00,14]
   + C130 * y_dis[2020-09-30_13_00_00,14]
   + C190 * y_buy[2020-09-30_13_00_00,14]
   - C210 * y_sell[2020-09-30_13_00_00,14] ] = -6.579442161911174
 Grid_balance[2020-09-30_13_00_00,15]: [
   - C111 * y_ch[2020-09-30_13_00_00,15]
   + C131 * y_dis[2020-09-30_13_00_00,15]
   + C191 * y_buy[2020-09-30_13_00_00,15]
   - C211 * y_sell[2020-09-30_13_00_00,15] ] = -662.229263538361
 Grid_balance[2020-09-30_13_00_00,16]: [
   - C112 * y_ch[2020-09-30_13_00_00,16]
   + C132 * y_dis[2020-09-30_13_00_00,16]
   + C192 * y_buy[2020-09-30_13_00_00,16]
   - C212 * y_sell[2020-09-30_13_00_00,16] ] = 587.7667140580488
 Grid_balance[2020-09-30_13_00_00,17]: [
   - C113 * y_ch[2020-09-30_13_00_00,17]
   + C133 * y_dis[2020-09-30_13_00_00,17]
   + C193 * y_buy[2020-09-30_13_00_00,17]
   - C213 * y_sell[2020-09-30_13_00_00,17] ] = -2368.385902948111
 Grid_balance[2020-09-30_13_00_00,18]: [
   - C114 * y_ch[2020-09-30_13_00_00,18]
   + C134 * y_dis[2020-09-30_13_00_00,18]
   + C194 * y_buy[2020-09-30_13_00_00,18]
   - C214 * y_sell[2020-09-30_13_00_00,18] ] = -3433.760645446686
 Grid_balance[2020-09-30_13_00_00,19]: [
   - C115 * y_ch[2020-09-30_13_00_00,19]
   + C135 * y_dis[2020-09-30_13_00_00,19]
   + C195 * y_buy[2020-09-30_13_00_00,19]
   - C215 * y_sell[2020-09-30_13_00_00,19] ] = -1099.951879126371
 qc22: ev_grid[2020-09-30_13_00_00,0] + grid_ev[2020-09-30_13_00_00,0] + [
   - ev_grid[2020-09-30_13_00_00,0] * y_sell[2020-09-30_13_00_00,0]
   - y_buy[2020-09-30_13_00_00,0] * grid_ev[2020-09-30_13_00_00,0] ] = 0
 qc23: ev_grid[2020-09-30_13_00_00,1] + grid_ev[2020-09-30_13_00_00,1] + [
   - ev_grid[2020-09-30_13_00_00,1] * y_sell[2020-09-30_13_00_00,1]
   - y_buy[2020-09-30_13_00_00,1] * grid_ev[2020-09-30_13_00_00,1] ] = 0
 qc24: ev_grid[2020-09-30_13_00_00,2] + grid_ev[2020-09-30_13_00_00,2] + [
   - ev_grid[2020-09-30_13_00_00,2] * y_sell[2020-09-30_13_00_00,2]
   - y_buy[2020-09-30_13_00_00,2] * grid_ev[2020-09-30_13_00_00,2] ] = 0
 qc25: ev_grid[2020-09-30_13_00_00,3] + grid_ev[2020-09-30_13_00_00,3] + [
   - ev_grid[2020-09-30_13_00_00,3] * y_sell[2020-09-30_13_00_00,3]
   - y_buy[2020-09-30_13_00_00,3] * grid_ev[2020-09-30_13_00_00,3] ] = 0
 qc26: ev_grid[2020-09-30_13_00_00,4] + grid_ev[2020-09-30_13_00_00,4] + [
   - ev_grid[2020-09-30_13_00_00,4] * y_sell[2020-09-30_13_00_00,4]
   - y_buy[2020-09-30_13_00_00,4] * grid_ev[2020-09-30_13_00_00,4] ] = 0
 qc27: ev_grid[2020-09-30_13_00_00,5] + grid_ev[2020-09-30_13_00_00,5] + [
   - ev_grid[2020-09-30_13_00_00,5] * y_sell[2020-09-30_13_00_00,5]
   - y_buy[2020-09-30_13_00_00,5] * grid_ev[2020-09-30_13_00_00,5] ] = 0
 qc28: ev_grid[2020-09-30_13_00_00,6] + grid_ev[2020-09-30_13_00_00,6] + [
   - ev_grid[2020-09-30_13_00_00,6] * y_sell[2020-09-30_13_00_00,6]
   - y_buy[2020-09-30_13_00_00,6] * grid_ev[2020-09-30_13_00_00,6] ] = 0
 qc29: ev_grid[2020-09-30_13_00_00,7] + grid_ev[2020-09-30_13_00_00,7] + [
   - ev_grid[2020-09-30_13_00_00,7] * y_sell[2020-09-30_13_00_00,7]
   - y_buy[2020-09-30_13_00_00,7] * grid_ev[2020-09-30_13_00_00,7] ] = 0
 qc30: ev_grid[2020-09-30_13_00_00,8] + grid_ev[2020-09-30_13_00_00,8] + [
   - ev_grid[2020-09-30_13_00_00,8] * y_sell[2020-09-30_13_00_00,8]
   - y_buy[2020-09-30_13_00_00,8] * grid_ev[2020-09-30_13_00_00,8] ] = 0
 qc31: ev_grid[2020-09-30_13_00_00,9] + grid_ev[2020-09-30_13_00_00,9] + [
   - ev_grid[2020-09-30_13_00_00,9] * y_sell[2020-09-30_13_00_00,9]
   - y_buy[2020-09-30_13_00_00,9] * grid_ev[2020-09-30_13_00_00,9] ] = 0
 qc32: ev_grid[2020-09-30_13_00_00,10] + grid_ev[2020-09-30_13_00_00,10]
   + [ - ev_grid[2020-09-30_13_00_00,10] * y_sell[2020-09-30_13_00_00,10]
   - y_buy[2020-09-30_13_00_00,10] * grid_ev[2020-09-30_13_00_00,10] ] = 0
 qc33: ev_grid[2020-09-30_13_00_00,11] + grid_ev[2020-09-30_13_00_00,11]
   + [ - ev_grid[2020-09-30_13_00_00,11] * y_sell[2020-09-30_13_00_00,11]
   - y_buy[2020-09-30_13_00_00,11] * grid_ev[2020-09-30_13_00_00,11] ] = 0
 qc34: ev_grid[2020-09-30_13_00_00,12] + grid_ev[2020-09-30_13_00_00,12]
   + [ - ev_grid[2020-09-30_13_00_00,12] * y_sell[2020-09-30_13_00_00,12]
   - y_buy[2020-09-30_13_00_00,12] * grid_ev[2020-09-30_13_00_00,12] ] = 0
 qc35: ev_grid[2020-09-30_13_00_00,13] + grid_ev[2020-09-30_13_00_00,13]
   + [ - ev_grid[2020-09-30_13_00_00,13] * y_sell[2020-09-30_13_00_00,13]
   - y_buy[2020-09-30_13_00_00,13] * grid_ev[2020-09-30_13_00_00,13] ] = 0
 qc36: ev_grid[2020-09-30_13_00_00,14] + grid_ev[2020-09-30_13_00_00,14]
   + [ - ev_grid[2020-09-30_13_00_00,14] * y_sell[2020-09-30_13_00_00,14]
   - y_buy[2020-09-30_13_00_00,14] * grid_ev[2020-09-30_13_00_00,14] ] = 0
 qc37: ev_grid[2020-09-30_13_00_00,15] + grid_ev[2020-09-30_13_00_00,15]
   + [ - ev_grid[2020-09-30_13_00_00,15] * y_sell[2020-09-30_13_00_00,15]
   - y_buy[2020-09-30_13_00_00,15] * grid_ev[2020-09-30_13_00_00,15] ] = 0
 qc38: ev_grid[2020-09-30_13_00_00,16] + grid_ev[2020-09-30_13_00_00,16]
   + [ - ev_grid[2020-09-30_13_00_00,16] * y_sell[2020-09-30_13_00_00,16]
   - y_buy[2020-09-30_13_00_00,16] * grid_ev[2020-09-30_13_00_00,16] ] = 0
 qc39: ev_grid[2020-09-30_13_00_00,17] + grid_ev[2020-09-30_13_00_00,17]
   + [ - ev_grid[2020-09-30_13_00_00,17] * y_sell[2020-09-30_13_00_00,17]
   - y_buy[2020-09-30_13_00_00,17] * grid_ev[2020-09-30_13_00_00,17] ] = 0
 qc40: ev_grid[2020-09-30_13_00_00,18] + grid_ev[2020-09-30_13_00_00,18]
   + [ - ev_grid[2020-09-30_13_00_00,18] * y_sell[2020-09-30_13_00_00,18]
   - y_buy[2020-09-30_13_00_00,18] * grid_ev[2020-09-30_13_00_00,18] ] = 0
 qc41: ev_grid[2020-09-30_13_00_00,19] + grid_ev[2020-09-30_13_00_00,19]
   + [ - ev_grid[2020-09-30_13_00_00,19] * y_sell[2020-09-30_13_00_00,19]
   - y_buy[2020-09-30_13_00_00,19] * grid_ev[2020-09-30_13_00_00,19] ] = 0
Bounds
 0.2 <= soc_2 <= 1
 C4 <= 3700
 C5 <= 3700
 0.2 <= soc[2020-09-30_13_00_00,0] <= 1
 0.2 <= soc[2020-09-30_13_00_00,1] <= 1
 0.2 <= soc[2020-09-30_13_00_00,2] <= 1
 0.2 <= soc[2020-09-30_13_00_00,3] <= 1
 0.2 <= soc[2020-09-30_13_00_00,4] <= 1
 0.2 <= soc[2020-09-30_13_00_00,5] <= 1
 0.2 <= soc[2020-09-30_13_00_00,6] <= 1
 0.2 <= soc[2020-09-30_13_00_00,7] <= 1
 0.2 <= soc[2020-09-30_13_00_00,8] <= 1
 0.2 <= soc[2020-09-30_13_00_00,9] <= 1
 0.2 <= soc[2020-09-30_13_00_00,10] <= 1
 0.2 <= soc[2020-09-30_13_00_00,11] <= 1
 0.2 <= soc[2020-09-30_13_00_00,12] <= 1
 0.2 <= soc[2020-09-30_13_00_00,13] <= 1
 0.2 <= soc[2020-09-30_13_00_00,14] <= 1
 0.2 <= soc[2020-09-30_13_00_00,15] <= 1
 0.2 <= soc[2020-09-30_13_00_00,16] <= 1
 0.2 <= soc[2020-09-30_13_00_00,17] <= 1
 0.2 <= soc[2020-09-30_13_00_00,18] <= 1
 0.2 <= soc[2020-09-30_13_00_00,19] <= 1
 C96 <= 3700
 C97 <= 3700
 C98 <= 3700
 C99 <= 3700
 C100 <= 3700
 C101 <= 3700
 C102 <= 3700
 C103 <= 3700
 C104 <= 3700
 C105 <= 3700
 C106 <= 3700
 C107 <= 3700
 C108 <= 3700
 C109 <= 3700
 C110 <= 3700
 C111 <= 3700
 C112 <= 3700
 C113 <= 3700
 C114 <= 3700
 C115 <= 3700
 C116 <= 3700
 C117 <= 3700
 C118 <= 3700
 C119 <= 3700
 C120 <= 3700
 C121 <= 3700
 C122 <= 3700
 C123 <= 3700
 C124 <= 3700
 C125 <= 3700
 C126 <= 3700
 C127 <= 3700
 C128 <= 3700
 C129 <= 3700
 C130 <= 3700
 C131 <= 3700
 C132 <= 3700
 C133 <= 3700
 C134 <= 3700
 C135 <= 3700
 Constant = 1
Binaries
 y_buy_1 y_sell_1 y_ch_1 y_dis_1 y_buy[2020-09-30_13_00_00,0]
 y_buy[2020-09-30_13_00_00,1] y_buy[2020-09-30_13_00_00,2]
 y_buy[2020-09-30_13_00_00,3] y_buy[2020-09-30_13_00_00,4]
 y_buy[2020-09-30_13_00_00,5] y_buy[2020-09-30_13_00_00,6]
 y_buy[2020-09-30_13_00_00,7] y_buy[2020-09-30_13_00_00,8]
 y_buy[2020-09-30_13_00_00,9] y_buy[2020-09-30_13_00_00,10]
 y_buy[2020-09-30_13_00_00,11] y_buy[2020-09-30_13_00_00,12]
 y_buy[2020-09-30_13_00_00,13] y_buy[2020-09-30_13_00_00,14]
 y_buy[2020-09-30_13_00_00,15] y_buy[2020-09-30_13_00_00,16]
 y_buy[2020-09-30_13_00_00,17] y_buy[2020-09-30_13_00_00,18]
 y_buy[2020-09-30_13_00_00,19] y_sell[2020-09-30_13_00_00,0]
 y_sell[2020-09-30_13_00_00,1] y_sell[2020-09-30_13_00_00,2]
 y_sell[2020-09-30_13_00_00,3] y_sell[2020-09-30_13_00_00,4]
 y_sell[2020-09-30_13_00_00,5] y_sell[2020-09-30_13_00_00,6]
 y_sell[2020-09-30_13_00_00,7] y_sell[2020-09-30_13_00_00,8]
 y_sell[2020-09-30_13_00_00,9] y_sell[2020-09-30_13_00_00,10]
 y_sell[2020-09-30_13_00_00,11] y_sell[2020-09-30_13_00_00,12]
 y_sell[2020-09-30_13_00_00,13] y_sell[2020-09-30_13_00_00,14]
 y_sell[2020-09-30_13_00_00,15] y_sell[2020-09-30_13_00_00,16]
 y_sell[2020-09-30_13_00_00,17] y_sell[2020-09-30_13_00_00,18]
 y_sell[2020-09-30_13_00_00,19] y_ch[2020-09-30_13_00_00,0]
 y_ch[2020-09-30_13_00_00,1] y_ch[2020-09-30_13_00_00,2]
 y_ch[2020-09-30_13_00_00,3] y_ch[2020-09-30_13_00_00,4]
 y_ch[2020-09-30_13_00_00,5] y_ch[2020-09-30_13_00_00,6]
 y_ch[2020-09-30_13_00_00,7] y_ch[2020-09-30_13_00_00,8]
 y_ch[2020-09-30_13_00_00,9] y_ch[2020-09-30_13_00_00,10]
 y_ch[2020-09-30_13_00_00,11] y_ch[2020-09-30_13_00_00,12]
 y_ch[2020-09-30_13_00_00,13] y_ch[2020-09-30_13_00_00,14]
 y_ch[2020-09-30_13_00_00,15] y_ch[2020-09-30_13_00_00,16]
 y_ch[2020-09-30_13_00_00,17] y_ch[2020-09-30_13_00_00,18]
 y_ch[2020-09-30_13_00_00,19] y_dis[2020-09-30_13_00_00,0]
 y_dis[2020-09-30_13_00_00,1] y_dis[2020-09-30_13_00_00,2]
 y_dis[2020-09-30_13_00_00,3] y_dis[2020-09-30_13_00_00,4]
 y_dis[2020-09-30_13_00_00,5] y_dis[2020-09-30_13_00_00,6]
 y_dis[2020-09-30_13_00_00,7] y_dis[2020-09-30_13_00_00,8]
 y_dis[2020-09-30_13_00_00,9] y_dis[2020-09-30_13_00_00,10]
 y_dis[2020-09-30_13_00_00,11] y_dis[2020-09-30_13_00_00,12]
 y_dis[2020-09-30_13_00_00,13] y_dis[2020-09-30_13_00_00,14]
 y_dis[2020-09-30_13_00_00,15] y_dis[2020-09-30_13_00_00,16]
 y_dis[2020-09-30_13_00_00,17] y_dis[2020-09-30_13_00_00,18]
 y_dis[2020-09-30_13_00_00,19]
End
